(set-logic QF_LIA)
(declare-fun x0 () Int)
(declare-fun x1 () Int)
(declare-fun x2 () Int)
(declare-fun x3 () Int)
(declare-fun x4 () Int)
(declare-fun x5 () Int)
(declare-fun x6 () Int)
(declare-fun x7 () Int)
(declare-fun x8 () Int)
(declare-fun x9 () Int)
(declare-fun A0 () Bool)
(declare-fun A1 () Bool)
(declare-fun A2 () Bool)
(declare-fun A3 () Bool)
(declare-fun A4 () Bool)
(declare-fun A5 () Bool)
(declare-fun A6 () Bool)
(declare-fun A7 () Bool)
(declare-fun A8 () Bool)
(declare-fun A9 () Bool)
(assert (let ((.def_0 (or A7 A0))) (let ((.def_1 (not .def_0))) (let ((.def_2 (not A1))) (let ((.def_3 (not A3))) (let ((.def_4 (or .def_3 .def_2))) (let ((.def_5 (or .def_4 .def_1))) (let ((.def_6 (* (- 1) x4))) (let ((.def_7 (< .def_6 (- 1)))) (let ((.def_8 (not .def_7))) (let ((.def_9 (or A4 .def_8))) (let ((.def_10 (not .def_9))) (let ((.def_11 (not A5))) (let ((.def_12 (or .def_2 .def_11))) (let ((.def_13 (not .def_12))) (let ((.def_14 (or .def_13 .def_10))) (let ((.def_15 (or .def_14 .def_5))) (let ((.def_16 (* (- 1) x5))) (let ((.def_17 (< .def_16 1))) (let ((.def_18 (* (- 1) x8))) (let ((.def_19 (< .def_18 1))) (let ((.def_20 (not .def_19))) (let ((.def_21 (and .def_20 .def_17))) (let ((.def_22 (not .def_21))) (let ((.def_23 (and A1 A4))) (let ((.def_24 (not .def_23))) (let ((.def_25 (= .def_24 .def_22))) (let ((.def_26 (not .def_25))) (let ((.def_27 (* 1 x6))) (let ((.def_28 (< .def_27 1))) (let ((.def_29 (* 1 x2))) (let ((.def_30 (+ .def_29 .def_18))) (let ((.def_31 (< .def_30 (- 1)))) (let ((.def_32 (not .def_31))) (let ((.def_33 (and .def_32 .def_28))) (let ((.def_34 (and A6 A4))) (let ((.def_35 (not .def_34))) (let ((.def_36 (and .def_35 .def_33))) (let ((.def_37 (and .def_36 .def_26))) (let ((.def_38 (or .def_37 .def_15))) (let ((.def_39 (not .def_38))) (let ((.def_40 (* (- 1) x2))) (let ((.def_41 (+ .def_18 .def_40))) (let ((.def_42 (< .def_41 (- 1)))) (let ((.def_43 (not .def_42))) (let ((.def_44 (< .def_27 (- 1)))) (let ((.def_45 (or .def_44 .def_43))) (let ((.def_46 (not .def_45))) (let ((.def_47 (not A8))) (let ((.def_48 (and A7 .def_47))) (let ((.def_49 (or .def_48 .def_46))) (let ((.def_50 (* 1 x9))) (let ((.def_51 (* (- 1) x6))) (let ((.def_52 (+ .def_51 .def_50))) (let ((.def_53 (< .def_52 (- 1)))) (let ((.def_54 (and .def_53 A4))) (let ((.def_55 (not .def_54))) (let ((.def_56 (* 1 x8))) (let ((.def_57 (* 1 x3))) (let ((.def_58 (+ .def_57 .def_56))) (let ((.def_59 (< .def_58 (- 1)))) (let ((.def_60 (not .def_59))) (let ((.def_61 (* (- 1) x1))) (let ((.def_62 (< .def_61 (- 1)))) (let ((.def_63 (not .def_62))) (let ((.def_64 (or .def_63 .def_60))) (let ((.def_65 (not .def_64))) (let ((.def_66 (and .def_65 .def_55))) (let ((.def_67 (not .def_66))) (let ((.def_68 (or .def_67 .def_49))) (let ((.def_69 (* (- 1) x0))) (let ((.def_70 (+ .def_61 .def_69))) (let ((.def_71 (< .def_70 1))) (let ((.def_72 (* (- 1) x3))) (let ((.def_73 (+ .def_40 .def_72))) (let ((.def_74 (< .def_73 1))) (let ((.def_75 (and .def_74 .def_71))) (let ((.def_76 (not .def_75))) (let ((.def_77 (* (- 1) x7))) (let ((.def_78 (< .def_77 (- 1)))) (let ((.def_79 (or A5 .def_78))) (let ((.def_80 (or .def_79 .def_76))) (let ((.def_81 (* (- 1) x9))) (let ((.def_82 (+ .def_51 .def_81))) (let ((.def_83 (< .def_82 1))) (let ((.def_84 (or .def_83 A4))) (let ((.def_85 (* 1 x7))) (let ((.def_86 (+ .def_85 .def_27))) (let ((.def_87 (< .def_86 1))) (let ((.def_88 (* 1 x4))) (let ((.def_89 (+ .def_88 .def_50))) (let ((.def_90 (< .def_89 1))) (let ((.def_91 (not .def_90))) (let ((.def_92 (and .def_91 .def_87))) (let ((.def_93 (and .def_92 .def_84))) (let ((.def_94 (and .def_93 .def_80))) (let ((.def_95 (and .def_94 .def_68))) (let ((.def_96 (not .def_95))) (let ((.def_97 (and .def_96 .def_39))) (let ((.def_98 (+ .def_85 .def_29))) (let ((.def_99 (< .def_98 (- 1)))) (let ((.def_100 (and .def_99 A5))) (let ((.def_101 (not .def_100))) (let ((.def_102 (and A1 A1))) (let ((.def_103 (not .def_102))) (let ((.def_104 (= .def_103 .def_101))) (let ((.def_105 (not .def_104))) (let ((.def_106 (and A2 A6))) (let ((.def_107 (not .def_106))) (let ((.def_108 (or A2 A3))) (let ((.def_109 (= .def_108 .def_107))) (let ((.def_110 (not .def_109))) (let ((.def_111 (or .def_110 .def_105))) (let ((.def_112 (not .def_111))) (let ((.def_113 (not A2))) (let ((.def_114 (and A0 .def_113))) (let ((.def_115 (not .def_114))) (let ((.def_116 (< .def_81 1))) (let ((.def_117 (= .def_116 .def_8))) (let ((.def_118 (not .def_117))) (let ((.def_119 (and .def_118 .def_115))) (let ((.def_120 (not .def_119))) (let ((.def_121 (not A0))) (let ((.def_122 (and .def_2 .def_121))) (let ((.def_123 (not .def_122))) (let ((.def_124 (+ .def_27 .def_57))) (let ((.def_125 (< .def_124 (- 1)))) (let ((.def_126 (* 1 x1))) (let ((.def_127 (< .def_126 (- 1)))) (let ((.def_128 (and .def_127 .def_125))) (let ((.def_129 (= .def_128 .def_123))) (let ((.def_130 (and .def_129 .def_120))) (let ((.def_131 (not .def_130))) (let ((.def_132 (or .def_131 .def_112))) (let ((.def_133 (< .def_50 1))) (let ((.def_134 (not .def_133))) (let ((.def_135 (= .def_134 A8))) (let ((.def_136 (or .def_7 A7))) (let ((.def_137 (not .def_136))) (let ((.def_138 (= .def_137 .def_135))) (let ((.def_139 (not .def_138))) (let ((.def_140 (not A7))) (let ((.def_141 (and .def_17 .def_140))) (let ((.def_142 (not .def_141))) (let ((.def_143 (+ .def_69 .def_18))) (let ((.def_144 (< .def_143 1))) (let ((.def_145 (or .def_144 .def_113))) (let ((.def_146 (and .def_145 .def_142))) (let ((.def_147 (not .def_146))) (let ((.def_148 (or .def_147 .def_139))) (let ((.def_149 (not .def_148))) (let ((.def_150 (or A0 A2))) (let ((.def_151 (+ .def_40 .def_56))) (let ((.def_152 (< .def_151 1))) (let ((.def_153 (not .def_152))) (let ((.def_154 (or .def_153 .def_127))) (let ((.def_155 (not .def_154))) (let ((.def_156 (and .def_155 .def_150))) (let ((.def_157 (< .def_56 (- 1)))) (let ((.def_158 (not .def_157))) (let ((.def_159 (or .def_158 A9))) (let ((.def_160 (* 1 x0))) (let ((.def_161 (+ .def_51 .def_160))) (let ((.def_162 (< .def_161 1))) (let ((.def_163 (not .def_162))) (let ((.def_164 (and .def_163 A4))) (let ((.def_165 (not .def_164))) (let ((.def_166 (= .def_165 .def_159))) (let ((.def_167 (not .def_166))) (let ((.def_168 (or .def_167 .def_156))) (let ((.def_169 (and .def_168 .def_149))) (let ((.def_170 (not .def_169))) (let ((.def_171 (= .def_170 .def_132))) (let ((.def_172 (not .def_171))) (let ((.def_173 (and .def_172 .def_97))) (let ((.def_174 (not .def_173))) (let ((.def_175 (or .def_140 .def_47))) (let ((.def_176 (not A4))) (let ((.def_177 (or .def_3 .def_176))) (let ((.def_178 (or .def_177 .def_175))) (let ((.def_179 (+ .def_18 .def_69))) (let ((.def_180 (< .def_179 1))) (let ((.def_181 (not .def_180))) (let ((.def_182 (and .def_181 A0))) (let ((.def_183 (+ .def_50 .def_27))) (let ((.def_184 (< .def_183 1))) (let ((.def_185 (not .def_184))) (let ((.def_186 (and .def_185 A1))) (let ((.def_187 (and .def_186 .def_182))) (let ((.def_188 (and .def_187 .def_178))) (let ((.def_189 (not .def_188))) (let ((.def_190 (* 1 x5))) (let ((.def_191 (< .def_190 (- 1)))) (let ((.def_192 (not .def_191))) (let ((.def_193 (or .def_192 .def_176))) (let ((.def_194 (not .def_193))) (let ((.def_195 (< .def_85 1))) (let ((.def_196 (= .def_195 .def_47))) (let ((.def_197 (and .def_196 .def_194))) (let ((.def_198 (+ .def_51 .def_56))) (let ((.def_199 (< .def_198 (- 1)))) (let ((.def_200 (+ .def_16 .def_85))) (let ((.def_201 (< .def_200 1))) (let ((.def_202 (and .def_201 .def_199))) (let ((.def_203 (not A9))) (let ((.def_204 (or .def_192 .def_203))) (let ((.def_205 (not .def_204))) (let ((.def_206 (= .def_205 .def_202))) (let ((.def_207 (or .def_206 .def_197))) (let ((.def_208 (or .def_207 .def_189))) (let ((.def_209 (not .def_208))) (let ((.def_210 (< .def_69 (- 1)))) (let ((.def_211 (and .def_210 A3))) (let ((.def_212 (not .def_211))) (let ((.def_213 (and A7 .def_7))) (let ((.def_214 (and .def_213 .def_212))) (let ((.def_215 (not .def_214))) (let ((.def_216 (and .def_47 .def_2))) (let ((.def_217 (not .def_216))) (let ((.def_218 (+ .def_16 .def_81))) (let ((.def_219 (< .def_218 (- 1)))) (let ((.def_220 (not .def_219))) (let ((.def_221 (< .def_51 1))) (let ((.def_222 (and .def_221 .def_220))) (let ((.def_223 (or .def_222 .def_217))) (let ((.def_224 (not .def_223))) (let ((.def_225 (and .def_224 .def_215))) (let ((.def_226 (not .def_225))) (let ((.def_227 (+ .def_160 .def_16))) (let ((.def_228 (< .def_227 (- 1)))) (let ((.def_229 (not .def_228))) (let ((.def_230 (or .def_229 .def_140))) (let ((.def_231 (not .def_230))) (let ((.def_232 (+ .def_88 .def_126))) (let ((.def_233 (< .def_232 (- 1)))) (let ((.def_234 (not .def_233))) (let ((.def_235 (and A0 .def_234))) (let ((.def_236 (not .def_235))) (let ((.def_237 (or .def_236 .def_231))) (let ((.def_238 (not .def_237))) (let ((.def_239 (< .def_126 1))) (let ((.def_240 (and .def_121 .def_239))) (let ((.def_241 (+ .def_50 .def_29))) (let ((.def_242 (< .def_241 1))) (let ((.def_243 (not .def_242))) (let ((.def_244 (or .def_243 .def_3))) (let ((.def_245 (and .def_244 .def_240))) (let ((.def_246 (not .def_245))) (let ((.def_247 (or .def_246 .def_238))) (let ((.def_248 (not .def_247))) (let ((.def_249 (or .def_248 .def_226))) (let ((.def_250 (not .def_249))) (let ((.def_251 (or .def_250 .def_209))) (let ((.def_252 (not .def_251))) (let ((.def_253 (or A6 A6))) (let ((.def_254 (< .def_160 1))) (let ((.def_255 (not .def_254))) (let ((.def_256 (or .def_255 A9))) (let ((.def_257 (or .def_256 .def_253))) (let ((.def_258 (+ .def_160 .def_27))) (let ((.def_259 (< .def_258 (- 1)))) (let ((.def_260 (not .def_259))) (let ((.def_261 (or .def_260 A2))) (let ((.def_262 (+ .def_190 .def_6))) (let ((.def_263 (< .def_262 1))) (let ((.def_264 (not .def_263))) (let ((.def_265 (= .def_210 .def_264))) (let ((.def_266 (or .def_265 .def_261))) (let ((.def_267 (not .def_266))) (let ((.def_268 (or .def_267 .def_257))) (let ((.def_269 (+ .def_72 .def_56))) (let ((.def_270 (< .def_269 1))) (let ((.def_271 (not .def_270))) (let ((.def_272 (and .def_47 .def_271))) (let ((.def_273 (+ .def_40 .def_6))) (let ((.def_274 (< .def_273 (- 1)))) (let ((.def_275 (and .def_274 A7))) (let ((.def_276 (not .def_275))) (let ((.def_277 (and .def_276 .def_272))) (let ((.def_278 (not .def_277))) (let ((.def_279 (+ .def_40 .def_190))) (let ((.def_280 (< .def_279 (- 1)))) (let ((.def_281 (not .def_280))) (let ((.def_282 (and .def_281 A9))) (let ((.def_283 (not .def_282))) (let ((.def_284 (not .def_116))) (let ((.def_285 (and .def_284 .def_7))) (let ((.def_286 (not .def_285))) (let ((.def_287 (or .def_286 .def_283))) (let ((.def_288 (and .def_287 .def_278))) (let ((.def_289 (not .def_288))) (let ((.def_290 (and .def_289 .def_268))) (let ((.def_291 (+ .def_51 .def_29))) (let ((.def_292 (< .def_291 (- 1)))) (let ((.def_293 (not .def_292))) (let ((.def_294 (or .def_293 .def_195))) (let ((.def_295 (not .def_294))) (let ((.def_296 (+ .def_27 .def_56))) (let ((.def_297 (< .def_296 (- 1)))) (let ((.def_298 (= .def_297 A3))) (let ((.def_299 (not .def_298))) (let ((.def_300 (or .def_299 .def_295))) (let ((.def_301 (+ .def_40 .def_51))) (let ((.def_302 (< .def_301 (- 1)))) (let ((.def_303 (not .def_302))) (let ((.def_304 (and A0 .def_303))) (let ((.def_305 (+ .def_51 .def_16))) (let ((.def_306 (< .def_305 1))) (let ((.def_307 (not .def_306))) (let ((.def_308 (and .def_307 A2))) (let ((.def_309 (not .def_308))) (let ((.def_310 (and .def_309 .def_304))) (let ((.def_311 (not .def_310))) (let ((.def_312 (and .def_311 .def_300))) (let ((.def_313 (not .def_312))) (let ((.def_314 (and .def_3 .def_11))) (let ((.def_315 (< .def_227 1))) (let ((.def_316 (< .def_61 1))) (let ((.def_317 (or .def_316 .def_315))) (let ((.def_318 (not .def_317))) (let ((.def_319 (and .def_318 .def_314))) (let ((.def_320 (or .def_203 A4))) (let ((.def_321 (not .def_320))) (let ((.def_322 (or .def_133 .def_28))) (let ((.def_323 (not .def_322))) (let ((.def_324 (and .def_323 .def_321))) (let ((.def_325 (and .def_324 .def_319))) (let ((.def_326 (or .def_325 .def_313))) (let ((.def_327 (not .def_326))) (let ((.def_328 (or .def_327 .def_290))) (let ((.def_329 (and .def_328 .def_252))) (let ((.def_330 (and .def_329 .def_174))) (let ((.def_331 (not A6))) (let ((.def_332 (and A1 .def_331))) (let ((.def_333 (+ .def_126 .def_29))) (let ((.def_334 (< .def_333 1))) (let ((.def_335 (not .def_334))) (let ((.def_336 (and .def_335 .def_47))) (let ((.def_337 (and .def_336 .def_332))) (let ((.def_338 (and A7 .def_62))) (let ((.def_339 (< .def_57 (- 1)))) (let ((.def_340 (not .def_339))) (let ((.def_341 (= .def_158 .def_340))) (let ((.def_342 (not .def_341))) (let ((.def_343 (and .def_342 .def_338))) (let ((.def_344 (not .def_343))) (let ((.def_345 (or .def_344 .def_337))) (let ((.def_346 (< .def_70 (- 1)))) (let ((.def_347 (not .def_346))) (let ((.def_348 (and .def_2 .def_347))) (let ((.def_349 (not .def_348))) (let ((.def_350 (+ .def_72 .def_40))) (let ((.def_351 (< .def_350 1))) (let ((.def_352 (not .def_351))) (let ((.def_353 (+ .def_190 .def_72))) (let ((.def_354 (< .def_353 (- 1)))) (let ((.def_355 (and .def_354 .def_352))) (let ((.def_356 (not .def_355))) (let ((.def_357 (or .def_356 .def_349))) (let ((.def_358 (< .def_160 (- 1)))) (let ((.def_359 (not .def_358))) (let ((.def_360 (+ .def_81 .def_18))) (let ((.def_361 (< .def_360 (- 1)))) (let ((.def_362 (and .def_361 .def_359))) (let ((.def_363 (< .def_85 (- 1)))) (let ((.def_364 (< .def_6 1))) (let ((.def_365 (= .def_364 .def_363))) (let ((.def_366 (not .def_365))) (let ((.def_367 (= .def_366 .def_362))) (let ((.def_368 (or .def_367 .def_357))) (let ((.def_369 (or .def_368 .def_345))) (let ((.def_370 (and .def_11 A8))) (let ((.def_371 (+ .def_18 .def_190))) (let ((.def_372 (< .def_371 1))) (let ((.def_373 (not .def_372))) (let ((.def_374 (and .def_373 .def_176))) (let ((.def_375 (not .def_374))) (let ((.def_376 (and .def_375 .def_370))) (let ((.def_377 (+ .def_6 .def_126))) (let ((.def_378 (< .def_377 (- 1)))) (let ((.def_379 (not .def_378))) (let ((.def_380 (and .def_210 .def_379))) (let ((.def_381 (and A9 A5))) (let ((.def_382 (and .def_381 .def_380))) (let ((.def_383 (and .def_382 .def_376))) (let ((.def_384 (not .def_383))) (let ((.def_385 (not .def_316))) (let ((.def_386 (or .def_331 .def_385))) (let ((.def_387 (< .def_88 (- 1)))) (let ((.def_388 (not .def_387))) (let ((.def_389 (and .def_388 A2))) (let ((.def_390 (and .def_389 .def_386))) (let ((.def_391 (not .def_390))) (let ((.def_392 (or .def_47 A4))) (let ((.def_393 (not .def_392))) (let ((.def_394 (and .def_17 .def_331))) (let ((.def_395 (or .def_394 .def_393))) (let ((.def_396 (not .def_395))) (let ((.def_397 (and .def_396 .def_391))) (let ((.def_398 (not .def_397))) (let ((.def_399 (and .def_398 .def_384))) (let ((.def_400 (and .def_399 .def_369))) (let ((.def_401 (not .def_400))) (let ((.def_402 (< .def_50 (- 1)))) (let ((.def_403 (= A8 .def_402))) (let ((.def_404 (not .def_403))) (let ((.def_405 (or A2 .def_47))) (let ((.def_406 (not .def_405))) (let ((.def_407 (or .def_406 .def_404))) (let ((.def_408 (not .def_407))) (let ((.def_409 (+ .def_51 .def_40))) (let ((.def_410 (< .def_409 1))) (let ((.def_411 (not .def_410))) (let ((.def_412 (or .def_411 .def_254))) (let ((.def_413 (not .def_412))) (let ((.def_414 (or .def_203 .def_184))) (let ((.def_415 (not .def_414))) (let ((.def_416 (and .def_415 .def_413))) (let ((.def_417 (not .def_416))) (let ((.def_418 (or .def_417 .def_408))) (let ((.def_419 (+ .def_126 .def_56))) (let ((.def_420 (< .def_419 (- 1)))) (let ((.def_421 (not .def_420))) (let ((.def_422 (+ .def_27 .def_6))) (let ((.def_423 (< .def_422 1))) (let ((.def_424 (and .def_423 .def_421))) (let ((.def_425 (+ .def_190 .def_27))) (let ((.def_426 (< .def_425 (- 1)))) (let ((.def_427 (not .def_426))) (let ((.def_428 (+ .def_72 .def_77))) (let ((.def_429 (< .def_428 1))) (let ((.def_430 (not .def_429))) (let ((.def_431 (and .def_430 .def_427))) (let ((.def_432 (not .def_431))) (let ((.def_433 (or .def_432 .def_424))) (let ((.def_434 (not .def_433))) (let ((.def_435 (or .def_331 A4))) (let ((.def_436 (not .def_435))) (let ((.def_437 (< .def_58 1))) (let ((.def_438 (not .def_437))) (let ((.def_439 (and .def_438 A3))) (let ((.def_440 (not .def_439))) (let ((.def_441 (or .def_440 .def_436))) (let ((.def_442 (and .def_441 .def_434))) (let ((.def_443 (not .def_442))) (let ((.def_444 (or .def_443 .def_418))) (let ((.def_445 (not .def_444))) (let ((.def_446 (and .def_113 A7))) (let ((.def_447 (not .def_446))) (let ((.def_448 (+ .def_57 .def_27))) (let ((.def_449 (< .def_448 (- 1)))) (let ((.def_450 (or A9 .def_449))) (let ((.def_451 (= .def_450 .def_447))) (let ((.def_452 (+ .def_69 .def_88))) (let ((.def_453 (< .def_452 (- 1)))) (let ((.def_454 (not .def_453))) (let ((.def_455 (or .def_454 .def_210))) (let ((.def_456 (not .def_455))) (let ((.def_457 (or A1 A1))) (let ((.def_458 (or .def_457 .def_456))) (let ((.def_459 (and .def_458 .def_451))) (let ((.def_460 (not .def_459))) (let ((.def_461 (+ .def_57 .def_6))) (let ((.def_462 (< .def_461 1))) (let ((.def_463 (and .def_462 A5))) (let ((.def_464 (not .def_463))) (let ((.def_465 (not .def_210))) (let ((.def_466 (and .def_465 .def_47))) (let ((.def_467 (not .def_466))) (let ((.def_468 (or .def_467 .def_464))) (let ((.def_469 (not .def_468))) (let ((.def_470 (< .def_29 (- 1)))) (let ((.def_471 (not .def_470))) (let ((.def_472 (or .def_11 .def_471))) (let ((.def_473 (= .def_113 .def_331))) (let ((.def_474 (not .def_473))) (let ((.def_475 (and .def_474 .def_472))) (let ((.def_476 (not .def_475))) (let ((.def_477 (or .def_476 .def_469))) (let ((.def_478 (not .def_477))) (let ((.def_479 (and .def_478 .def_460))) (let ((.def_480 (or .def_479 .def_445))) (let ((.def_481 (= .def_480 .def_401))) (let ((.def_482 (not .def_481))) (let ((.def_483 (< .def_57 1))) (let ((.def_484 (not .def_483))) (let ((.def_485 (+ .def_81 .def_40))) (let ((.def_486 (< .def_485 1))) (let ((.def_487 (or .def_486 .def_484))) (let ((.def_488 (not .def_487))) (let ((.def_489 (or .def_47 A3))) (let ((.def_490 (or .def_489 .def_488))) (let ((.def_491 (not .def_490))) (let ((.def_492 (+ .def_27 .def_190))) (let ((.def_493 (< .def_492 (- 1)))) (let ((.def_494 (not .def_493))) (let ((.def_495 (and .def_494 A4))) (let ((.def_496 (not .def_495))) (let ((.def_497 (and .def_113 .def_127))) (let ((.def_498 (= .def_497 .def_496))) (let ((.def_499 (not .def_498))) (let ((.def_500 (and .def_499 .def_491))) (let ((.def_501 (not .def_500))) (let ((.def_502 (not .def_221))) (let ((.def_503 (+ .def_6 .def_77))) (let ((.def_504 (< .def_503 (- 1)))) (let ((.def_505 (and .def_504 .def_502))) (let ((.def_506 (not .def_505))) (let ((.def_507 (and A6 A6))) (let ((.def_508 (and .def_507 .def_506))) (let ((.def_509 (not .def_78))) (let ((.def_510 (and .def_509 .def_2))) (let ((.def_511 (not .def_510))) (let ((.def_512 (and A7 A5))) (let ((.def_513 (not .def_512))) (let ((.def_514 (and .def_513 .def_511))) (let ((.def_515 (not .def_514))) (let ((.def_516 (or .def_515 .def_508))) (let ((.def_517 (and .def_516 .def_501))) (let ((.def_518 (not .def_517))) (let ((.def_519 (< .def_72 1))) (let ((.def_520 (not .def_519))) (let ((.def_521 (or .def_140 .def_520))) (let ((.def_522 (not .def_521))) (let ((.def_523 (or .def_140 .def_113))) (let ((.def_524 (not .def_523))) (let ((.def_525 (or .def_524 .def_522))) (let ((.def_526 (not .def_525))) (let ((.def_527 (< .def_353 1))) (let ((.def_528 (or .def_527 .def_47))) (let ((.def_529 (not .def_528))) (let ((.def_530 (< .def_18 (- 1)))) (let ((.def_531 (not .def_530))) (let ((.def_532 (= .def_531 .def_121))) (let ((.def_533 (and .def_532 .def_529))) (let ((.def_534 (or .def_533 .def_526))) (let ((.def_535 (< .def_40 1))) (let ((.def_536 (and .def_535 .def_203))) (let ((.def_537 (< .def_51 (- 1)))) (let ((.def_538 (not .def_537))) (let ((.def_539 (+ .def_77 .def_27))) (let ((.def_540 (< .def_539 1))) (let ((.def_541 (and .def_540 .def_538))) (let ((.def_542 (and .def_541 .def_536))) (let ((.def_543 (+ .def_57 .def_61))) (let ((.def_544 (< .def_543 (- 1)))) (let ((.def_545 (and A3 .def_544))) (let ((.def_546 (not .def_545))) (let ((.def_547 (+ .def_27 .def_50))) (let ((.def_548 (< .def_547 (- 1)))) (let ((.def_549 (not .def_548))) (let ((.def_550 (< .def_69 1))) (let ((.def_551 (or .def_550 .def_549))) (let ((.def_552 (not .def_551))) (let ((.def_553 (and .def_552 .def_546))) (let ((.def_554 (= .def_553 .def_542))) (let ((.def_555 (not .def_554))) (let ((.def_556 (and .def_555 .def_534))) (let ((.def_557 (or .def_556 .def_518))) (let ((.def_558 (not .def_557))) (let ((.def_559 (and .def_47 A4))) (let ((.def_560 (and .def_239 A2))) (let ((.def_561 (not .def_560))) (let ((.def_562 (and .def_561 .def_559))) (let ((.def_563 (not .def_562))) (let ((.def_564 (+ .def_51 .def_126))) (let ((.def_565 (< .def_564 1))) (let ((.def_566 (or .def_121 .def_565))) (let ((.def_567 (not .def_566))) (let ((.def_568 (+ .def_56 .def_27))) (let ((.def_569 (< .def_568 1))) (let ((.def_570 (or .def_569 .def_11))) (let ((.def_571 (or .def_570 .def_567))) (let ((.def_572 (or .def_571 .def_563))) (let ((.def_573 (not .def_572))) (let ((.def_574 (and .def_331 .def_121))) (let ((.def_575 (+ .def_85 .def_6))) (let ((.def_576 (< .def_575 (- 1)))) (let ((.def_577 (or .def_576 .def_331))) (let ((.def_578 (not .def_577))) (let ((.def_579 (or .def_578 .def_574))) (let ((.def_580 (and .def_47 .def_47))) (let ((.def_581 (not .def_580))) (let ((.def_582 (or A9 .def_255))) (let ((.def_583 (and .def_582 .def_581))) (let ((.def_584 (and .def_583 .def_579))) (let ((.def_585 (and .def_584 .def_573))) (let ((.def_586 (not .def_585))) (let ((.def_587 (and .def_340 .def_47))) (let ((.def_588 (not .def_44))) (let ((.def_589 (or .def_588 .def_121))) (let ((.def_590 (not .def_589))) (let ((.def_591 (and .def_590 .def_587))) (let ((.def_592 (not .def_591))) (let ((.def_593 (= .def_195 A3))) (let ((.def_594 (not .def_593))) (let ((.def_595 (and .def_113 .def_331))) (let ((.def_596 (or .def_595 .def_594))) (let ((.def_597 (not .def_596))) (let ((.def_598 (or .def_597 .def_592))) (let ((.def_599 (not .def_598))) (let ((.def_600 (< .def_291 1))) (let ((.def_601 (= .def_600 .def_471))) (let ((.def_602 (< .def_16 (- 1)))) (let ((.def_603 (not .def_602))) (let ((.def_604 (or .def_603 .def_47))) (let ((.def_605 (= .def_604 .def_601))) (let ((.def_606 (not .def_605))) (let ((.def_607 (+ .def_85 .def_126))) (let ((.def_608 (< .def_607 1))) (let ((.def_609 (not .def_608))) (let ((.def_610 (or .def_609 .def_203))) (let ((.def_611 (not .def_610))) (let ((.def_612 (+ .def_160 .def_81))) (let ((.def_613 (< .def_612 (- 1)))) (let ((.def_614 (not .def_613))) (let ((.def_615 (< .def_575 1))) (let ((.def_616 (not .def_615))) (let ((.def_617 (= .def_616 .def_614))) (let ((.def_618 (not .def_617))) (let ((.def_619 (or .def_618 .def_611))) (let ((.def_620 (not .def_619))) (let ((.def_621 (or .def_620 .def_606))) (let ((.def_622 (not .def_621))) (let ((.def_623 (= .def_622 .def_599))) (let ((.def_624 (not .def_623))) (let ((.def_625 (and .def_624 .def_586))) (let ((.def_626 (not .def_625))) (let ((.def_627 (and .def_626 .def_558))) (let ((.def_628 (not .def_627))) (let ((.def_629 (or .def_628 .def_482))) (let ((.def_630 (and .def_629 .def_330))) (let ((.def_631 (not .def_630))) (let ((.def_632 (<= x9 1))) (let ((.def_633 (<= 0 x9))) (let ((.def_634 (<= x8 1))) (let ((.def_635 (<= 0 x8))) (let ((.def_636 (<= x7 1))) (let ((.def_637 (<= 0 x7))) (let ((.def_638 (<= x6 1))) (let ((.def_639 (<= 0 x6))) (let ((.def_640 (<= x5 1))) (let ((.def_641 (<= 0 x5))) (let ((.def_642 (<= x4 1))) (let ((.def_643 (<= 0 x4))) (let ((.def_644 (<= x3 1))) (let ((.def_645 (<= 0 x3))) (let ((.def_646 (<= x2 1))) (let ((.def_647 (<= 0 x2))) (let ((.def_648 (<= x1 1))) (let ((.def_649 (<= 0 x1))) (let ((.def_650 (<= x0 1))) (let ((.def_651 (<= 0 x0))) (let ((.def_652 (and .def_651 .def_650 .def_649 .def_648 .def_647 .def_646 .def_645 .def_644 .def_643 .def_642 .def_641 .def_640 .def_639 .def_638 .def_637 .def_636 .def_635 .def_634 .def_633 .def_632 .def_631))) .def_652))))))))))))))))))))))))))))))))))))))))))))))))))))))))))))))))))))))))))))))))))))))))))))))))))))))))))))))))))))))))))))))))))))))))))))))))))))))))))))))))))))))))))))))))))))))))))))))))))))))))))))))))))))))))))))))))))))))))))))))))))))))))))))))))))))))))))))))))))))))))))))))))))))))))))))))))))))))))))))))))))))))))))))))))))))))))))))))))))))))))))))))))))))))))))))))))))))))))))))))))))))))))))))))))))))))))))))))))))))))))))))))))))))))))))))))))))))))))))))))))))))))))))))))))))))))))))))))))))))))))))))))))))))))))))))))))))))))))))))))))))))))))))))))))))))))))))))))))))))))))))))))))))))))))))))))))))))))))))))))))))))))))))))))
(check-sat)
